102397
12,23,55,42,25,15,69,78,41,52,39,63,4,50,65,18,37,13,1,10,29,64,73,45,46,54,71,66,36,80,62,14,70,26,76,67,20,77,17,56,7,27,33,16,11,75,82,40,32,74,58,9,21,48,24,31,19,5,22,44,68,59,53,8,83,61,6,79,28,35,30,2,38,51,72,81,60,47,49,34,57,43,3,12